c [MSE2022] -- begin -- [MSE2022]
0.00/0.00	c
0.00/0.00	c NuWLS based on TT-Open-WBO-Inc:	 an Anytime MaxSAT Solver --- based on Glucose4.1 (core version)
0.00/0.00	c Version:	 MaxSAT Evaluation 2021
0.00/0.00	c Author of NuWLS:	 Yi Chu, Xiang He
0.00/0.00	c Author of TT-Open-WBO-Inc:	 Alexander Nadel
0.00/0.00	c Authors of the baseline solver Open-WBO-Inc:	 Saurabh Joshi, Prateek Kumar, Ruben Martins, Sukrut Rao
0.00/0.00	c WARNING: for repeatability, setting FPU to use double precision
0.00/0.00	c |                                                                                                       |
0.00/0.00	c ========================================[ Problem Statistics ]===========================================
0.00/0.00	c |                                                                                                       |
0.00/0.00	c |  Problem Format:             MaxSAT                                                                   |
0.00/0.00	c |  Problem Type:           Unweighted                                                                   |
0.00/0.00	c |  Number of variables:           215                                                                   |
0.00/0.00	c |  Number of hard clauses:          0                                                                   |
0.00/0.00	c |  Number of soft clauses:       1090                                                                   |
0.00/0.00	c |  Number of cardinality:           0                                                                   |
0.00/0.00	c |  Number of PB :                   0                                                                   |
0.00/0.00	c |  Parse time:                   0.00 s                                                                 |
0.00/0.00	c |                                                                                                       |
0.00/0.00	c | best-alg-selector overriden target_vars_bump_val to 0, since it hadn't been set by the user |
0.00/0.00	c | best-alg-selector overriden ms_model_per_sec_thr to 2, since it hadn't been set by the user |
0.00/0.00	c | best-alg-selector overriden ms_mutation_classes to 0, since it hadn't been set by the user |
0.00/0.00	c | best-alg-selector overriden ms_chrono to 100, since it hadn't been set by the user |
0.00/0.00	c ==========================================[ Solver Settings ]============================================
0.00/0.00	c |                                                                                                       |
0.00/0.00	c |  Algorithm:                     OBV                                                                   |
0.00/0.00	c |  Cardinality Encoding:       Modulo Totalizer                                                         |
0.00/0.00	c |  Limit number conflicts:       1000                                                                   |
0.00/0.00	c |  Limit number iterations: 2147483647                                                                   |
0.00/0.00	c |  Global limit number conflicts:   F                                                                   |
0.00/0.00	c |                                                                                                       |
0.00/0.00	c Mrs. Beaver incomplete stage
0.00/0.00	o 161
0.00/0.00	c total_lit_count 2395
0.00/0.00	c before build neighbor
0.00/0.00	c build instime is 0
0.00/0.00	c using neighbor 
0.00/0.00	c build NuWLS instance done!
0.00/0.00	c changing to NuWLS solver!!!
0.00/0.00	c problem weighted = 0
0.00/0.00	o 161
0.00/0.00	o 156
0.00/0.00	o 151
0.00/0.00	o 147
0.00/0.00	o 144
0.00/0.00	o 141
0.00/0.00	o 138
0.00/0.00	o 136
0.00/0.00	o 134
0.00/0.00	o 132
0.00/0.00	o 130
0.00/0.00	o 129
0.00/0.00	o 128
0.00/0.00	o 127
0.00/0.00	o 126
0.00/0.00	o 125
0.00/0.00	o 123
0.00/0.00	o 122
0.00/0.00	o 121
0.00/0.00	o 120
0.00/0.00	o 119
0.00/0.00	o 118
0.00/0.00	o 117
0.00/0.00	o 116
0.00/0.00	o 115
0.00/0.00	o 114
0.00/0.00	o 113
0.00/0.00	o 112
0.00/0.00	o 111
0.00/0.00	o 110
0.00/0.00	o 109
0.00/0.00	o 108
0.00/0.00	o 107
0.00/0.00	o 106
0.00/0.00	o 105
0.00/0.00	o 104
0.00/0.00	o 103
0.00/0.00	o 102
0.00/0.00	o 101
0.00/0.00	o 100
0.00/0.00	o 99
0.00/0.00	o 98
0.00/0.01	o 97
0.07/0.08	s SATISFIABLE
0.07/0.08	o 97 
0.07/0.08	v 11110001011010001001001001011110100010110110010001011011100111000001001000110011110011000101011000000011110100111011011101011110101111101110100011011100110011010000100100101010011011110111110100100111000010111011010
c [MSE2022] -- end -- [MSE2022]
